5 5
1 43 4 33 3 19 2 8 0 31
3 11 0 8 4 25 2 20 1 38
0 7 2 77 4 39 1 74 3 72
1 20 3 81 2 11 0 16 4 42
1 96 4 90 0 52 2 37 3 52
-1
0 4 5
0 1 2 5
0 3 5
0 2 4 5
0 2 3 5
-2
110 170
16 27 141
179 352
134 173 205
248 277 359

354 4
10 6 18 22 4
15 20 13 0 9
11 17 8 23 3
5 16 14 2 24
12 21 7 1 19
